784 1568
1 2 4
1 29 4
2 3 4
2 30 5
3 4 2
3 31 2
4 5 3
4 32 2
5 6 3
5 33 1
6 7 5
6 34 1
7 8 5
7 35 3
8 9 3
8 36 4
9 10 2
9 37 3
10 11 1
10 38 5
11 12 4
11 39 4
12 13 4
12 40 2
13 14 2
13 41 3
14 15 1
14 42 1
15 16 3
15 43 2
16 17 2
16 44 3
17 18 1
17 45 4
18 19 4
18 46 1
19 20 3
19 47 4
20 21 3
20 48 4
21 22 3
21 49 1
22 23 1
22 50 4
23 24 5
23 51 1
24 25 1
24 52 3
25 26 2
25 53 3
26 27 5
26 54 5
27 28 4
27 55 3
28 56 2
29 30 3
29 57 5
30 31 1
30 58 1
31 32 2
31 59 1
32 33 1
32 60 5
33 34 1
33 61 1
34 35 4
34 62 1
35 36 2
35 63 1
36 37 5
36 64 4
37 38 1
37 65 4
38 39 4
38 66 3
39 40 2
39 67 5
40 41 2
40 68 2
41 42 4
41 69 5
42 43 3
42 70 5
43 44 5
43 71 1
44 45 2
44 72 1
45 46 1
45 73 5
46 47 3
46 74 2
47 48 5
47 75 4
48 49 4
48 76 3
49 50 5
49 77 1
50 51 5
50 78 1
51 52 2
51 79 3
52 53 3
52 80 1
53 54 5
53 81 4
54 55 5
54 82 1
55 56 5
55 83 3
56 84 3
57 58 5
57 85 4
58 59 4
58 86 5
59 60 2
59 87 3
60 61 2
60 88 2
61 62 5
61 89 5
62 63 5
62 90 1
63 64 3
63 91 2
64 65 2
64 92 2
65 66 5
65 93 3
66 67 3
66 94 4
67 68 3
67 95 1
68 69 1
68 96 3
69 70 1
69 97 3
70 71 1
70 98 5
71 72 1
71 99 5
72 73 4
72 100 3
73 74 3
73 101 5
74 75 5
74 102 4
75 76 3
75 103 1
76 77 1
76 104 2
77 78 2
77 105 4
78 79 3
78 106 5
79 80 4
79 107 5
80 81 5
80 108 1
81 82 4
81 109 3
82 83 2
82 110 4
83 84 1
83 111 3
84 112 1
85 86 2
85 113 2
86 87 2
86 114 1
87 88 1
87 115 3
88 89 1
88 116 5
89 90 2
89 117 3
90 91 2
90 118 1
91 92 1
91 119 3
92 93 4
92 120 1
93 94 1
93 121 3
94 95 1
94 122 2
95 96 2
95 123 1
96 97 4
96 124 4
97 98 3
97 125 3
98 99 5
98 126 1
99 100 1
99 127 5
100 101 2
100 128 3
101 102 4
101 129 5
102 103 2
102 130 2
103 104 3
103 131 2
104 105 5
104 132 3
105 106 3
105 133 2
106 107 4
106 134 2
107 108 5
107 135 2
108 109 1
108 136 4
109 110 2
109 137 3
110 111 3
110 138 2
111 112 1
111 139 5
112 140 2
113 114 4
113 141 3
114 115 1
114 142 4
115 116 4
115 143 2
116 117 4
116 144 1
117 118 5
117 145 4
118 119 4
118 146 1
119 120 5
119 147 3
120 121 3
120 148 2
121 122 1
121 149 4
122 123 1
122 150 3
123 124 2
123 151 2
124 125 1
124 152 5
125 126 4
125 153 4
126 127 4
126 154 4
127 128 4
127 155 5
128 129 1
128 156 1
129 130 5
129 157 1
130 131 4
130 158 4
131 132 2
131 159 1
132 133 3
132 160 1
133 134 3
133 161 4
134 135 4
134 162 2
135 136 3
135 163 1
136 137 4
136 164 2
137 138 3
137 165 4
138 139 1
138 166 1
139 140 1
139 167 5
140 168 5
141 142 4
141 169 5
142 143 4
142 170 3
143 144 3
143 171 5
144 145 3
144 172 4
145 146 5
145 173 3
146 147 4
146 174 2
147 148 1
147 175 5
148 149 5
148 176 5
149 150 4
149 177 5
150 151 5
150 178 3
151 152 1
151 179 3
152 153 5
152 180 5
153 154 1
153 181 4
154 155 5
154 182 5
155 156 4
155 183 3
156 157 5
156 184 3
157 158 1
157 185 4
158 159 4
158 186 3
159 160 4
159 187 4
160 161 2
160 188 3
161 162 5
161 189 5
162 163 5
162 190 4
163 164 2
163 191 1
164 165 2
164 192 4
165 166 3
165 193 2
166 167 2
166 194 5
167 168 4
167 195 1
168 196 2
169 170 3
169 197 1
170 171 4
170 198 1
171 172 2
171 199 4
172 173 5
172 200 2
173 174 4
173 201 3
174 175 1
174 202 5
175 176 2
175 203 5
176 177 5
176 204 2
177 178 3
177 205 1
178 179 1
178 206 3
179 180 5
179 207 4
180 181 5
180 208 1
181 182 3
181 209 3
182 183 5
182 210 3
183 184 2
183 211 1
184 185 3
184 212 3
185 186 4
185 213 1
186 187 3
186 214 5
187 188 1
187 215 1
188 189 2
188 216 2
189 190 5
189 217 3
190 191 1
190 218 4
191 192 5
191 219 5
192 193 2
192 220 5
193 194 4
193 221 4
194 195 1
194 222 5
195 196 3
195 223 5
196 224 2
197 198 2
197 225 4
198 199 5
198 226 1
199 200 3
199 227 5
200 201 1
200 228 5
201 202 4
201 229 5
202 203 5
202 230 1
203 204 2
203 231 1
204 205 5
204 232 1
205 206 5
205 233 5
206 207 1
206 234 4
207 208 1
207 235 5
208 209 1
208 236 4
209 210 5
209 237 3
210 211 3
210 238 4
211 212 3
211 239 5
212 213 2
212 240 1
213 214 3
213 241 5
214 215 4
214 242 3
215 216 2
215 243 4
216 217 2
216 244 1
217 218 4
217 245 2
218 219 1
218 246 1
219 220 1
219 247 5
220 221 5
220 248 1
221 222 3
221 249 3
222 223 3
222 250 4
223 224 4
223 251 1
224 252 3
225 226 3
225 253 4
226 227 5
226 254 4
227 228 4
227 255 3
228 229 3
228 256 1
229 230 2
229 257 1
230 231 2
230 258 3
231 232 2
231 259 4
232 233 4
232 260 3
233 234 4
233 261 2
234 235 1
234 262 2
235 236 2
235 263 2
236 237 1
236 264 3
237 238 4
237 265 5
238 239 5
238 266 3
239 240 1
239 267 3
240 241 2
240 268 4
241 242 1
241 269 4
242 243 5
242 270 4
243 244 3
243 271 3
244 245 3
244 272 5
245 246 4
245 273 4
246 247 5
246 274 5
247 248 4
247 275 1
248 249 5
248 276 5
249 250 3
249 277 1
250 251 5
250 278 5
251 252 3
251 279 5
252 280 2
253 254 5
253 281 4
254 255 3
254 282 5
255 256 1
255 283 4
256 257 4
256 284 2
257 258 4
257 285 5
258 259 1
258 286 1
259 260 1
259 287 3
260 261 1
260 288 3
261 262 1
261 289 5
262 263 3
262 290 4
263 264 1
263 291 3
264 265 5
264 292 4
265 266 2
265 293 1
266 267 2
266 294 4
267 268 5
267 295 3
268 269 5
268 296 1
269 270 1
269 297 5
270 271 4
270 298 4
271 272 1
271 299 4
272 273 5
272 300 4
273 274 3
273 301 1
274 275 3
274 302 1
275 276 3
275 303 2
276 277 1
276 304 5
277 278 1
277 305 5
278 279 1
278 306 1
279 280 3
279 307 2
280 308 5
281 282 2
281 309 3
282 283 3
282 310 3
283 284 4
283 311 4
284 285 5
284 312 3
285 286 5
285 313 2
286 287 2
286 314 4
287 288 2
287 315 5
288 289 3
288 316 5
289 290 5
289 317 3
290 291 1
290 318 2
291 292 3
291 319 5
292 293 4
292 320 5
293 294 3
293 321 3
294 295 2
294 322 4
295 296 2
295 323 3
296 297 3
296 324 1
297 298 1
297 325 1
298 299 1
298 326 2
299 300 2
299 327 2
300 301 1
300 328 4
301 302 3
301 329 5
302 303 1
302 330 3
303 304 1
303 331 3
304 305 3
304 332 1
305 306 5
305 333 1
306 307 3
306 334 4
307 308 5
307 335 4
308 336 3
309 310 4
309 337 5
310 311 1
310 338 1
311 312 4
311 339 3
312 313 3
312 340 5
313 314 2
313 341 2
314 315 5
314 342 1
315 316 2
315 343 1
316 317 1
316 344 5
317 318 3
317 345 2
318 319 4
318 346 2
319 320 1
319 347 4
320 321 3
320 348 2
321 322 2
321 349 4
322 323 3
322 350 2
323 324 5
323 351 5
324 325 3
324 352 2
325 326 2
325 353 1
326 327 1
326 354 4
327 328 5
327 355 2
328 329 2
328 356 1
329 330 5
329 357 4
330 331 4
330 358 3
331 332 5
331 359 2
332 333 4
332 360 3
333 334 2
333 361 3
334 335 1
334 362 5
335 336 4
335 363 2
336 364 3
337 338 4
337 365 2
338 339 4
338 366 4
339 340 5
339 367 4
340 341 1
340 368 3
341 342 4
341 369 1
342 343 1
342 370 4
343 344 3
343 371 3
344 345 4
344 372 5
345 346 5
345 373 3
346 347 1
346 374 1
347 348 4
347 375 2
348 349 3
348 376 4
349 350 4
349 377 3
350 351 3
350 378 1
351 352 4
351 379 3
352 353 2
352 380 5
353 354 5
353 381 1
354 355 4
354 382 5
355 356 5
355 383 1
356 357 4
356 384 5
357 358 4
357 385 1
358 359 5
358 386 2
359 360 4
359 387 1
360 361 4
360 388 4
361 362 3
361 389 4
362 363 4
362 390 5
363 364 1
363 391 5
364 392 4
365 366 3
365 393 5
366 367 1
366 394 2
367 368 1
367 395 3
368 369 3
368 396 1
369 370 5
369 397 2
370 371 1
370 398 3
371 372 5
371 399 5
372 373 2
372 400 1
373 374 5
373 401 4
374 375 2
374 402 2
375 376 2
375 403 3
376 377 4
376 404 2
377 378 3
377 405 5
378 379 2
378 406 5
379 380 3
379 407 3
380 381 5
380 408 3
381 382 2
381 409 3
382 383 2
382 410 1
383 384 2
383 411 1
384 385 3
384 412 5
385 386 5
385 413 1
386 387 1
386 414 3
387 388 3
387 415 3
388 389 3
388 416 3
389 390 2
389 417 3
390 391 3
390 418 2
391 392 5
391 419 1
392 420 2
393 394 4
393 421 2
394 395 5
394 422 3
395 396 1
395 423 4
396 397 3
396 424 4
397 398 2
397 425 4
398 399 4
398 426 1
399 400 4
399 427 4
400 401 3
400 428 2
401 402 5
401 429 1
402 403 2
402 430 2
403 404 5
403 431 1
404 405 5
404 432 5
405 406 1
405 433 2
406 407 3
406 434 2
407 408 1
407 435 5
408 409 1
408 436 4
409 410 1
409 437 4
410 411 4
410 438 1
411 412 4
411 439 1
412 413 1
412 440 2
413 414 4
413 441 1
414 415 5
414 442 5
415 416 5
415 443 4
416 417 4
416 444 2
417 418 2
417 445 2
418 419 2
418 446 2
419 420 1
419 447 4
420 448 4
421 422 4
421 449 3
422 423 4
422 450 3
423 424 2
423 451 2
424 425 3
424 452 1
425 426 3
425 453 3
426 427 3
426 454 5
427 428 3
427 455 3
428 429 1
428 456 4
429 430 3
429 457 3
430 431 5
430 458 4
431 432 5
431 459 3
432 433 5
432 460 4
433 434 4
433 461 4
434 435 4
434 462 5
435 436 3
435 463 5
436 437 2
436 464 5
437 438 3
437 465 2
438 439 1
438 466 3
439 440 4
439 467 1
440 441 2
440 468 2
441 442 5
441 469 4
442 443 4
442 470 3
443 444 5
443 471 4
444 445 5
444 472 2
445 446 1
445 473 1
446 447 2
446 474 4
447 448 4
447 475 3
448 476 3
449 450 3
449 477 1
450 451 5
450 478 5
451 452 2
451 479 5
452 453 4
452 480 1
453 454 4
453 481 5
454 455 3
454 482 4
455 456 4
455 483 1
456 457 5
456 484 5
457 458 4
457 485 4
458 459 4
458 486 4
459 460 1
459 487 1
460 461 3
460 488 4
461 462 5
461 489 1
462 463 2
462 490 4
463 464 1
463 491 1
464 465 3
464 492 5
465 466 3
465 493 4
466 467 5
466 494 2
467 468 3
467 495 2
468 469 3
468 496 1
469 470 5
469 497 1
470 471 1
470 498 5
471 472 5
471 499 1
472 473 1
472 500 5
473 474 5
473 501 5
474 475 2
474 502 1
475 476 4
475 503 5
476 504 3
477 478 3
477 505 5
478 479 3
478 506 5
479 480 1
479 507 2
480 481 2
480 508 3
481 482 2
481 509 2
482 483 2
482 510 1
483 484 2
483 511 3
484 485 4
484 512 5
485 486 1
485 513 3
486 487 3
486 514 3
487 488 5
487 515 4
488 489 1
488 516 5
489 490 5
489 517 5
490 491 3
490 518 3
491 492 5
491 519 2
492 493 2
492 520 2
493 494 4
493 521 5
494 495 1
494 522 5
495 496 4
495 523 3
496 497 3
496 524 1
497 498 3
497 525 5
498 499 2
498 526 1
499 500 5
499 527 5
500 501 1
500 528 1
501 502 4
501 529 5
502 503 5
502 530 5
503 504 4
503 531 4
504 532 1
505 506 1
505 533 2
506 507 2
506 534 3
507 508 3
507 535 2
508 509 3
508 536 1
509 510 2
509 537 1
510 511 3
510 538 3
511 512 5
511 539 4
512 513 4
512 540 4
513 514 5
513 541 1
514 515 5
514 542 2
515 516 5
515 543 5
516 517 3
516 544 2
517 518 3
517 545 4
518 519 3
518 546 2
519 520 2
519 547 3
520 521 4
520 548 3
521 522 2
521 549 3
522 523 5
522 550 4
523 524 1
523 551 5
524 525 5
524 552 2
525 526 3
525 553 1
526 527 3
526 554 3
527 528 4
527 555 2
528 529 4
528 556 4
529 530 2
529 557 3
530 531 5
530 558 3
531 532 5
531 559 2
532 560 2
533 534 4
533 561 3
534 535 1
534 562 3
535 536 5
535 563 4
536 537 2
536 564 5
537 538 2
537 565 5
538 539 2
538 566 3
539 540 3
539 567 5
540 541 5
540 568 2
541 542 5
541 569 1
542 543 1
542 570 5
543 544 1
543 571 2
544 545 2
544 572 1
545 546 1
545 573 3
546 547 2
546 574 1
547 548 3
547 575 2
548 549 3
548 576 5
549 550 3
549 577 3
550 551 2
550 578 4
551 552 5
551 579 1
552 553 3
552 580 1
553 554 3
553 581 3
554 555 5
554 582 4
555 556 1
555 583 4
556 557 2
556 584 1
557 558 3
557 585 3
558 559 1
558 586 4
559 560 4
559 587 5
560 588 1
561 562 5
561 589 4
562 563 1
562 590 5
563 564 3
563 591 2
564 565 1
564 592 1
565 566 5
565 593 1
566 567 4
566 594 3
567 568 2
567 595 5
568 569 5
568 596 1
569 570 5
569 597 5
570 571 3
570 598 1
571 572 5
571 599 2
572 573 4
572 600 2
573 574 4
573 601 1
574 575 5
574 602 5
575 576 5
575 603 1
576 577 1
576 604 4
577 578 3
577 605 5
578 579 1
578 606 4
579 580 3
579 607 3
580 581 2
580 608 1
581 582 3
581 609 3
582 583 3
582 610 2
583 584 2
583 611 1
584 585 4
584 612 3
585 586 2
585 613 5
586 587 5
586 614 5
587 588 5
587 615 2
588 616 4
589 590 1
589 617 3
590 591 5
590 618 5
591 592 1
591 619 5
592 593 2
592 620 4
593 594 3
593 621 1
594 595 3
594 622 5
595 596 5
595 623 3
596 597 3
596 624 5
597 598 1
597 625 3
598 599 2
598 626 4
599 600 5
599 627 5
600 601 5
600 628 2
601 602 5
601 629 5
602 603 3
602 630 1
603 604 2
603 631 2
604 605 4
604 632 1
605 606 1
605 633 2
606 607 5
606 634 1
607 608 3
607 635 5
608 609 4
608 636 4
609 610 4
609 637 1
610 611 3
610 638 5
611 612 4
611 639 3
612 613 3
612 640 3
613 614 5
613 641 1
614 615 1
614 642 2
615 616 1
615 643 1
616 644 1
617 618 2
617 645 3
618 619 1
618 646 1
619 620 2
619 647 5
620 621 2
620 648 2
621 622 1
621 649 2
622 623 3
622 650 1
623 624 5
623 651 4
624 625 4
624 652 1
625 626 3
625 653 4
626 627 5
626 654 4
627 628 2
627 655 4
628 629 1
628 656 5
629 630 1
629 657 2
630 631 2
630 658 5
631 632 2
631 659 5
632 633 5
632 660 1
633 634 4
633 661 2
634 635 2
634 662 2
635 636 5
635 663 1
636 637 5
636 664 4
637 638 5
637 665 4
638 639 3
638 666 4
639 640 4
639 667 4
640 641 4
640 668 2
641 642 2
641 669 2
642 643 1
642 670 1
643 644 3
643 671 2
644 672 2
645 646 1
645 673 4
646 647 4
646 674 1
647 648 5
647 675 1
648 649 4
648 676 3
649 650 2
649 677 4
650 651 5
650 678 5
651 652 2
651 679 4
652 653 3
652 680 5
653 654 1
653 681 5
654 655 1
654 682 1
655 656 5
655 683 3
656 657 3
656 684 2
657 658 2
657 685 3
658 659 3
658 686 3
659 660 4
659 687 3
660 661 1
660 688 4
661 662 1
661 689 5
662 663 4
662 690 1
663 664 2
663 691 1
664 665 3
664 692 2
665 666 2
665 693 5
666 667 1
666 694 3
667 668 5
667 695 4
668 669 4
668 696 5
669 670 3
669 697 3
670 671 5
670 698 5
671 672 3
671 699 2
672 700 3
673 674 3
673 701 4
674 675 3
674 702 5
675 676 5
675 703 4
676 677 5
676 704 2
677 678 4
677 705 3
678 679 3
678 706 2
679 680 2
679 707 1
680 681 2
680 708 1
681 682 3
681 709 3
682 683 3
682 710 3
683 684 2
683 711 3
684 685 1
684 712 2
685 686 3
685 713 5
686 687 2
686 714 4
687 688 3
687 715 2
688 689 3
688 716 3
689 690 3
689 717 3
690 691 1
690 718 1
691 692 2
691 719 4
692 693 5
692 720 2
693 694 5
693 721 2
694 695 5
694 722 1
695 696 5
695 723 2
696 697 5
696 724 1
697 698 3
697 725 3
698 699 5
698 726 2
699 700 3
699 727 3
700 728 5
701 702 2
701 729 3
702 703 2
702 730 5
703 704 5
703 731 2
704 705 2
704 732 3
705 706 1
705 733 4
706 707 4
706 734 3
707 708 5
707 735 2
708 709 3
708 736 2
709 710 2
709 737 5
710 711 1
710 738 1
711 712 5
711 739 4
712 713 5
712 740 4
713 714 4
713 741 5
714 715 3
714 742 4
715 716 4
715 743 1
716 717 1
716 744 5
717 718 3
717 745 2
718 719 1
718 746 2
719 720 3
719 747 5
720 721 2
720 748 2
721 722 3
721 749 3
722 723 2
722 750 3
723 724 1
723 751 3
724 725 5
724 752 5
725 726 5
725 753 1
726 727 2
726 754 5
727 728 4
727 755 4
728 756 3
729 730 2
729 757 5
730 731 3
730 758 3
731 732 2
731 759 3
732 733 2
732 760 1
733 734 4
733 761 3
734 735 2
734 762 4
735 736 5
735 763 1
736 737 1
736 764 2
737 738 4
737 765 5
738 739 5
738 766 2
739 740 4
739 767 1
740 741 4
740 768 4
741 742 2
741 769 4
742 743 2
742 770 4
743 744 4
743 771 3
744 745 1
744 772 1
745 746 3
745 773 2
746 747 4
746 774 5
747 748 5
747 775 5
748 749 2
748 776 1
749 750 1
749 777 4
750 751 3
750 778 5
751 752 1
751 779 1
752 753 5
752 780 3
753 754 5
753 781 5
754 755 2
754 782 2
755 756 4
755 783 3
756 784 4
757 758 1
758 759 1
759 760 5
760 761 5
761 762 3
762 763 1
763 764 3
764 765 4
765 766 4
766 767 4
767 768 2
768 769 1
769 770 2
770 771 1
771 772 5
772 773 4
773 774 4
774 775 4
775 776 4
776 777 4
777 778 2
778 779 4
779 780 5
780 781 5
781 782 3
782 783 1
783 784 2
1 757 3
2 758 1
3 759 2
4 760 5
5 761 1
6 762 4
7 763 5
8 764 5
9 765 5
10 766 3
11 767 1
12 768 1
13 769 4
14 770 2
15 771 1
16 772 5
17 773 1
18 774 2
19 775 2
20 776 1
21 777 5
22 778 2
23 779 3
24 780 3
25 781 1
26 782 1
27 783 2
28 784 4
1 28 4
29 56 4
57 84 3
85 112 3
113 140 1
141 168 1
169 196 4
197 224 4
225 252 2
253 280 2
281 308 3
309 336 1
337 364 3
365 392 4
393 420 1
421 448 1
449 476 2
477 504 5
505 532 1
533 560 5
561 588 2
589 616 5
617 644 2
645 672 4
673 700 5
701 728 2
729 756 1
757 784 5
